Route #1: 1 1 43 41 56 16 51 6 1 
Route #2: 1 2 30 45 15 57 13 46 1 
Route #3: 1 49 44 26 7 34 52 29 48 1 
Route #4: 1 62 61 47 5 54 35 53 23 1 
Route #5: 1 42 28 21 36 19 4 1 
Route #6: 1 63 12 58 11 8 33 1 
Route #7: 1 17 38 39 25 55 18 50 3 1 
Route #8: 1 22 64 24 32 9 1 
Route #9: 1 60 20 37 27 59 14 1 
Route #10: 1 40 31 10 1 

Cost 1280.61
Time 0.9284


 * Another infos *

 Iterations: 65 Time: 0.9284 sec - 0.0155 min - 0.0003 horas
0.0000 h 0.0155 min
Problem dimension: 65
